(set-info :smt-lib-version 2.6)
(set-logic QF_LIA)
(set-info :source |http://www.nec-labs.com/~fsoft/bench.html 
 The following changes have been made: 
 The logic is changed to QF_LIA. 
 The category is set as industrial. 
 The status (except 'large' cases) is assigned according to the 'outfile' on http://www.nec-labs.com/~fsoft/bench.html.  |)
(set-info :category "industrial")
(set-info :status sat)
(declare-fun i1430 () Int)
(declare-fun i1446 () Int)
(declare-fun i1474 () Int)
(declare-fun i1531 () Int)
(declare-fun i1589 () Int)
(declare-fun i1651 () Int)
(declare-fun i1727 () Int)
(declare-fun i1495 () Int)
(assert (let ((?v_3 (+ 0 0))) (let ((?v_0 (not (= i1430 ?v_3)))) (let ((?v_1 (ite ?v_0 5 (ite ?v_0 3 41))) (?v_8 (+ 41 0))) (let ((?v_6 (= ?v_1 ?v_8)) (?v_2 (= ?v_1 (+ 5 0)))) (let ((?v_12 (ite (not ?v_6) 0 i1446)) (?v_4 (= (ite (not ?v_2) 0 i1446) ?v_3))) (let ((?v_7 (= ?v_12 ?v_3)) (?v_5 (ite ?v_2 7 (ite ?v_6 43 ?v_1))) (?v_10 (+ 43 0))) (let ((?v_9 (ite (= ?v_5 (+ 7 0)) (ite (not ?v_4) 8 (ite ?v_4 41 ?v_5)) (ite (not (= ?v_5 ?v_10)) ?v_5 (ite (not ?v_7) 46 (ite ?v_7 122 ?v_5))))) (?v_22 (+ 122 0))) (let ((?v_18 (= ?v_9 ?v_22)) (?v_20 (+ 46 0))) (let ((?v_16 (= ?v_9 ?v_20)) (?v_15 (= ?v_9 (+ 8 0))) (?v_11 (= ?v_9 ?v_8))) (let ((?v_59 (ite (not ?v_11) ?v_12 i1474)) (?v_31 (ite (not ?v_18) 0 i1474))) (let ((?v_13 (= ?v_59 ?v_3)) (?v_26 (ite ?v_15 i1474 (ite (not ?v_16) 0 i1474))) (?v_19 (= ?v_31 ?v_3))) (let ((?v_17 (<= 4 (+ ?v_26 0))) (?v_14 (ite ?v_11 43 (ite ?v_15 10 (ite ?v_16 48 (ite ?v_18 124 ?v_9))))) (?v_29 (+ 124 0)) (?v_24 (+ 48 0))) (let ((?v_75 (= ?v_14 (+ 10 0))) (?v_23 (not ?v_17))) (let ((?v_21 (ite (= ?v_14 ?v_10) (ite (not ?v_13) 46 (ite ?v_13 122 ?v_14)) (ite ?v_75 16 (ite (= ?v_14 ?v_24) (ite ?v_23 50 (ite ?v_17 122 ?v_14)) (ite (not (= ?v_14 ?v_29)) ?v_14 (ite (not ?v_19) 125 (ite ?v_19 205 ?v_14))))))) (?v_39 (+ 205 0))) (let ((?v_35 (= ?v_21 ?v_39)) (?v_38 (+ 125 0))) (let ((?v_40 (= ?v_21 ?v_38)) (?v_37 (+ 50 0))) (let ((?v_33 (= ?v_21 ?v_37)) (?v_30 (= ?v_21 ?v_22)) (?v_25 (= ?v_21 ?v_20))) (let ((?v_45 (ite (not ?v_30) ?v_31 i1531)) (?v_49 (ite (not ?v_33) 0 i1531)) (?v_54 (ite (not ?v_35) 0 i1531)) (?v_27 (<= 4 (+ (ite (not ?v_25) ?v_26 i1531) 0)))) (let ((?v_32 (= ?v_45 ?v_3)) (?v_34 (= ?v_49 ?v_3)) (?v_28 (ite ?v_25 48 (ite ?v_30 124 (ite (= ?v_21 (+ 16 0)) (ite ?v_17 18 (ite ?v_23 27 ?v_21)) (ite ?v_33 52 (ite ?v_40 126 (ite ?v_35 207 ?v_21))))))) (?v_52 (+ 207 0)) (?v_51 (+ 126 0))) (let ((?v_41 (= ?v_28 ?v_51)) (?v_47 (+ 52 0)) (?v_55 (= ?v_28 (+ 18 0)))) (let ((?v_71 (ite (not ?v_41) 0 i1589)) (?v_36 (ite (= ?v_28 ?v_24) (ite (not ?v_27) 50 (ite ?v_27 122 ?v_28)) (ite (= ?v_28 ?v_29) (ite (not ?v_32) 125 (ite ?v_32 205 ?v_28)) (ite ?v_55 19 (ite (= ?v_28 (+ 27 0)) 29 (ite (= ?v_28 ?v_47) (ite (not ?v_34) 53 (ite ?v_34 89 ?v_28)) (ite ?v_41 128 (ite (not (= ?v_28 ?v_52)) ?v_28 (ite (not (= ?v_54 ?v_3)) 208 ?v_28))))))))) (?v_73 (+ 208 0))) (let ((?v_82 (= ?v_36 ?v_73)) (?v_67 (+ 128 0)) (?v_66 (+ 89 0)) (?v_65 (+ 53 0))) (let ((?v_77 (= ?v_36 ?v_65)) (?v_56 (= ?v_36 (+ 19 0))) (?v_53 (= ?v_36 ?v_39)) (?v_68 (= ?v_36 ?v_38)) (?v_48 (= ?v_36 ?v_37)) (?v_44 (= ?v_36 ?v_22))) (let ((?v_64 (ite (not ?v_53) ?v_54 i1651)) (?v_46 (= (ite (not ?v_44) ?v_45 i1651) ?v_3)) (?v_50 (= (ite (not ?v_48) ?v_49 i1651) ?v_3)) (?v_69 (ite (not ?v_40) 0 (* (- 1) i1531)))) (let ((?v_42 (= (- 1) (+ (+ 0 (+ 0 (- 1) ?v_69) ?v_71) 0)))) (let ((?v_43 (ite ?v_44 124 (ite ?v_48 52 (ite ?v_68 126 (ite ?v_53 207 (ite ?v_56 21 (ite (= ?v_36 (+ 29 0)) 41 (ite ?v_77 54 (ite (= ?v_36 ?v_66) 90 (ite (= ?v_36 ?v_67) (ite ?v_42 130 (ite (not ?v_42) 203 ?v_36)) (ite ?v_82 210 ?v_36)))))))))))) (let ((?v_58 (= ?v_43 ?v_8)) (?v_70 (= ?v_43 ?v_51)) (?v_57 (= (- 1) (+ (+ 0 (+ 0 (- 1) (ite (not ?v_55) 0 (* (- 1) i1589))) (ite (not ?v_56) 0 i1651)) 0))) (?v_62 (= ?v_43 (+ 35 0))) (?v_79 (= ?v_43 (+ 54 0))) (?v_74 (= ?v_43 (+ 130 0))) (?v_63 (= ?v_43 (+ 203 0)))) (let ((?v_61 (ite ?v_58 43 (ite (= ?v_43 ?v_29) (ite (not ?v_46) 125 (ite ?v_46 205 ?v_43)) (ite (= ?v_43 ?v_47) (ite (not ?v_50) 53 (ite ?v_50 89 ?v_43)) (ite ?v_70 128 (ite (= ?v_43 ?v_52) (ite (not (= ?v_64 ?v_3)) 208 ?v_43) (ite (= ?v_43 (+ 21 0)) (ite ?v_57 23 (ite (not ?v_57) 26 ?v_43)) (ite ?v_62 207 (ite ?v_79 56 (ite (= ?v_43 (+ 90 0)) 91 (ite ?v_74 132 (ite ?v_63 207 (ite (= ?v_43 (+ 210 0)) 219 ?v_43))))))))))))) (?v_60 (= (ite (not ?v_58) ?v_59 i1727) ?v_3)) (?v_78 (* (- 1) i1651))) (let ((?v_72 (= (- 1) (+ (+ 0 (+ 0 (- 1) (ite (not ?v_68) ?v_69 ?v_78)) (ite (not ?v_70) ?v_71 i1727)) 0))) (?v_76 (<= 4 (+ (ite (not ?v_74) (ite (not ?v_75) 0 i1495) i1727) 0)))) (let ((?v_81 (not ?v_76)) (?v_80 (= (- 1) (+ (+ 0 (+ 0 (- 1) (ite (not ?v_77) 0 ?v_78)) (ite (not ?v_79) 0 i1727)) 0)))) (and true (= (ite (= ?v_61 ?v_10) (ite (not ?v_60) 46 (ite ?v_60 122 ?v_61)) (ite (= ?v_61 ?v_38) 126 (ite (= ?v_61 ?v_39) 207 (ite (= ?v_61 ?v_52) (ite (not (= (ite ?v_62 i1727 (ite (not ?v_63) ?v_64 i1727)) ?v_3)) 208 ?v_61) (ite (= ?v_61 ?v_65) 54 (ite (= ?v_61 ?v_66) 90 (ite (= ?v_61 ?v_67) (ite ?v_72 130 (ite (not ?v_72) 203 ?v_61)) (ite (= ?v_61 ?v_73) 210 (ite (= ?v_61 (+ 23 0)) (ite ?v_76 24 (ite ?v_81 25 ?v_61)) (ite (= ?v_61 (+ 26 0)) 29 (ite (= ?v_61 (+ 56 0)) (ite ?v_80 57 (ite (not ?v_80) 89 ?v_61)) (ite (= ?v_61 (+ 91 0)) 473 (ite (= ?v_61 (+ 132 0)) (ite ?v_81 133 (ite ?v_76 201 ?v_61)) (ite (not (= ?v_61 (+ 219 0))) ?v_61 (ite (not (<= (ite (not ?v_82) 0 i1651) ?v_3)) 223 ?v_61))))))))))))))) (+ 473 0))))))))))))))))))))))))))))))))))
(check-sat)
(exit)
